p wcnf 107 214 215 
1 -92 47 0 
1 -20 87 0 
1 -10 87 0 
1 -92 98 0 
1 82 -4 0 
1 78 -16 0 
1 67 82 0 
1 5 89 0 
1 84 -14 0 
1 68 12 0 
1 -28 42 0 
1 35 39 0 
1 -61 84 0 
1 48 -6 0 
1 2 56 0 
1 90 -55 0 
1 35 -44 0 
1 -101 14 0 
1 94 -43 0 
1 -75 -64 0 
1 19 -16 0 
1 38 61 0 
1 -6 56 0 
1 99 96 0 
1 16 64 0 
1 -39 100 0 
1 54 8 0 
1 45 -43 0 
1 21 74 0 
1 -86 -71 0 
1 9 -66 0 
1 81 92 0 
1 6 76 0 
1 -76 44 0 
1 -21 74 0 
1 95 -8 0 
1 -43 -85 0 
1 -101 -75 0 
1 35 -23 0 
1 35 -20 0 
1 29 -83 0 
1 60 -48 0 
1 -70 8 0 
1 54 10 0 
1 101 -20 0 
1 38 -107 0 
1 -41 -76 0 
1 51 -38 0 
1 -92 -41 0 
1 -14 90 0 
1 -6 -44 0 
1 -100 10 0 
1 105 13 0 
1 20 50 0 
1 98 -84 0 
1 -12 -56 0 
1 -88 91 0 
1 68 12 0 
1 26 24 0 
1 -48 -82 0 
1 -59 -27 0 
1 98 -63 0 
1 -58 -80 0 
1 -64 -17 0 
1 -80 40 0 
1 21 88 0 
1 -67 37 0 
1 91 98 0 
1 11 4 0 
1 73 32 0 
1 106 -66 0 
1 105 47 0 
1 -13 75 0 
1 -95 -34 0 
1 90 13 0 
1 -42 -71 0 
1 60 -29 0 
1 54 69 0 
1 20 -9 0 
1 56 -87 0 
1 -27 -87 0 
1 -53 77 0 
1 86 -51 0 
1 -33 -64 0 
1 98 74 0 
1 16 67 0 
1 -7 24 0 
1 -61 -97 0 
1 53 -1 0 
1 -48 -101 0 
1 65 71 0 
1 89 -12 0 
1 -94 -54 0 
1 70 -53 0 
1 29 -12 0 
1 100 -68 0 
1 -26 7 0 
1 -71 -62 0 
1 -93 -5 0 
1 -52 35 0 
1 12 -66 0 
1 -68 -70 0 
1 -67 56 0 
1 -5 -68 0 
1 -85 2 0 
1 -23 -38 0 
1 -20 57 0 
1 25 -87 0 
1 -96 -91 0 
1 -92 98 0 
1 102 -31 0 
1 -56 86 0 
1 -54 47 0 
1 101 -46 0 
1 44 -88 0 
1 -75 -97 0 
1 65 43 0 
1 21 56 0 
1 14 -29 0 
1 105 4 0 
1 74 -27 0 
1 -57 -69 0 
1 -59 -58 0 
1 -89 88 0 
1 -94 46 0 
1 -90 36 0 
1 -3 9 0 
1 68 -40 0 
1 -79 -56 0 
1 15 42 0 
1 22 75 0 
1 -19 91 0 
1 -46 -95 0 
1 -100 -93 0 
1 -6 20 0 
1 74 -72 0 
1 87 45 0 
1 -38 -56 0 
1 20 85 0 
1 -41 -14 0 
1 44 -54 0 
1 13 -24 0 
1 21 -6 0 
1 -39 72 0 
1 39 -76 0 
1 86 60 0 
1 105 8 0 
1 -2 105 0 
1 20 87 0 
1 -42 -16 0 
1 88 -74 0 
1 -5 63 0 
1 -73 32 0 
1 1 -106 0 
1 26 78 0 
1 -54 -62 0 
1 14 -97 0 
1 -72 -78 0 
1 -11 51 0 
1 -54 99 0 
1 -56 -50 0 
1 -9 20 0 
1 -55 -101 0 
1 44 15 0 
1 -98 25 0 
1 9 47 0 
1 -3 -103 0 
1 101 34 0 
1 47 82 0 
1 -87 -91 0 
1 14 -76 0 
1 -58 66 0 
1 -28 -25 0 
1 107 -18 0 
1 1 -81 0 
1 73 5 0 
1 -31 94 0 
1 -84 8 0 
1 -19 -32 0 
1 78 -90 0 
1 38 81 0 
1 -79 11 0 
1 -33 80 0 
1 -77 84 0 
1 -89 -64 0 
1 -20 68 0 
1 17 -53 0 
1 -64 40 0 
1 -4 -107 0 
1 -105 39 0 
1 -92 -19 0 
1 -15 90 0 
1 9 99 0 
1 -56 -97 0 
1 42 -72 0 
1 60 -57 0 
1 71 -38 0 
1 -20 -56 0 
1 -74 -69 0 
1 -15 54 0 
1 94 45 0 
1 42 -72 0 
1 -70 -5 0 
1 -93 -71 0 
1 -9 6 0 
1 -63 -44 0 
1 -49 -56 0 
1 74 -48 0 
1 -33 106 0 
1 -76 -37 0 
1 -35 12 0 
1 35 103 0 
1 70 12 0 
1 14 73 0 
